1599746
1,24,61,3,21,38,7,67,64,11,66,26,55,34,46,43,22,31,14,52,33,57,18,10,44,53,37,62,39,51,35,68,50,28,63,16,59,36,8,15,58,9,17,27,45,2,48,65,20,4,47,13,54,19,49,23,60,6,41,30,25,29,5,40,56,32,42,12,1